x = 24;
y = 11;
c = 85;
n = 55;

p = [73  39  40  97  42  32  63  24  91  62  18  21  18  96  27  86  52  71  87  88  61  31  99  37  99  37  26  44  41  20  14  36  88  14  20  66  74  11  25  46  59  89  52  12  54  75  36  97  41  62  44  68  80  27  89];
w = [4  10  5  4  4  1  9  2  6  5  9  7  10  3  3  5  4  1  9  9  2  2  1  7  9  1  9  7  6  9  8  1  6  3  6  3  10  10  1  5  9  9  2  4  10  1  4  10  5  2  3  5  2  9  4];
s = [1  3  10  6  7  1  7  2  9  7  8  1  5  8  1  3  9  1  6  5  7  5  10  3  4  9  2  5  2  3  6  2  8  10  7  11  7  11  5  3  4  3  2  4  7  6  2  6  4  2  10  6  9  1  7];
